s td 121 12 132
b 1 1 2 13
b 2 11 12 24
b 3 109 121 122
b 4 120 131 132
b 5 2 3 13 14
b 6 10 11 23 24
b 7 3 4 15 28 41 54 67 80 93 106 117 130
b 8 4 15 17 28 41 54 67 80 93 106 117 130
b 9 4 17 28 30 41 54 67 80 93 106 117 130
b 10 4 17 30 41 43 54 67 80 93 106 117 130
b 11 4 17 30 43 54 56 67 80 93 106 117 130
b 12 4 17 30 43 56 67 69 80 93 106 117 130
b 13 4 17 30 43 56 69 80 82 93 106 117 130
b 14 4 17 30 43 56 69 82 93 95 106 117 130
b 15 4 17 30 43 56 69 82 95 106 108 117 130
b 16 4 6 17 30 43 56 69 82 95 108
b 17 4 5 6 17
b 18 6 17 19 30 43 56 69 82 95 108
b 19 6 19 30 32 43 56 69 82 95 108
b 20 6 19 32 43 45 56 69 82 95 108
b 21 6 19 32 45 56 58 69 82 95 108
b 22 6 19 32 45 58 69 71 82 95 108
b 23 6 19 32 45 58 60 71 82 95 108
b 24 6 19 32 45 47 58 60 71
b 25 6 19 32 34 45 47 58 60
b 26 6 19 21 32 34 45 47 60
b 27 6 8 19 21 32 34 47 60
b 28 6 7 8 19
b 29 8 21 34 36 47 60
b 30 8 10 21 34 36 47
b 31 8 9 10 21
b 32 10 21 23 34 36 47
b 33 10 21 22 23 34
b 34 10 23 24 36
b 35 23 34 35 36 47
b 36 36 47 48 60
b 37 8 19 20 21 32
b 38 21 32 33 34 45
b 39 34 45 46 47 58
b 40 47 58 59 60 71
b 41 60 71 82 84 95 108
b 42 60 71 72 84
b 43 71 82 83 84 95
b 44 84 95 96 108
b 45 58 69 70 71 82
b 46 45 56 57 58 69
b 47 32 43 44 45 56
b 48 19 30 31 32 43
b 49 6 17 18 19 30
b 50 95 106 108 117 119 130
b 51 95 106 107 108 119
b 52 106 117 118 119 130
b 53 108 119 130 131
b 54 82 93 94 95 106
b 55 69 80 81 82 93
b 56 56 67 68 69 80
b 57 43 54 55 56 67
b 58 30 41 42 43 54
b 59 17 28 29 30 41
b 60 4 15 16 17 28
b 61 3 15 28 41 54 67 80 93 104 106 117 130
b 62 3 15 28 41 54 67 80 91 93 104 117 130
b 63 3 15 28 41 54 67 78 80 91 104 117 130
b 64 3 15 28 41 54 65 67 78 91 104 117 130
b 65 3 15 28 41 52 54 65 78 91 104 117 130
b 66 3 15 28 39 41 52 65 78 91 104 117 130
b 67 3 15 26 28 39 52 65 78 91 104 117 130
b 68 3 13 15 26 39 52 65 78 91 104 117 130
b 69 3 13 14 15 26
b 70 13 26 37 39 52 65 78 91 104 117 130
b 71 13 25 26 37
b 72 26 37 39 50 52 65 78 91 104 117 130
b 73 26 37 38 39 50
b 74 37 39 50 52 63 65 78 91 104 117 130
b 75 37 50 52 63 65 76 78 91 104 117 130
b 76 37 50 63 65 76 78 89 91 104 117 130
b 77 37 50 63 76 78 89 91 102 104 117 130
b 78 37 50 63 76 89 91 102 104 115 117 130
b 79 37 50 63 76 89 102 104 115 117 128 130
b 80 37 50 61 63 76 89 102 115 128
b 81 37 49 50 61
b 82 50 61 63 74 76 89 102 115 128
b 83 50 61 62 63 74
b 84 61 63 74 76 87 89 102 115 128
b 85 61 74 76 87 89 102 115 126 128
b 86 61 74 76 87 89 100 102 115 126
b 87 61 74 87 89 100 102 113 115 126
b 88 61 74 87 100 113 124 126
b 89 61 74 87 100 111 113 124
b 90 61 74 87 98 100 111 124
b 91 61 74 87 97 98 111 124
b 92 61 74 86 87 97 98
b 93 61 73 74 86 97
b 94 73 85 86 97
b 95 97 98 111 122 124
b 96 97 98 110 111 122
b 97 111 122 123 124
b 98 87 98 99 100 111
b 99 100 111 112 113 124
b 100 113 124 125 126
b 101 89 100 101 102 113
b 102 102 113 114 115 126
b 103 76 87 88 89 100
b 104 115 126 127 128
b 105 63 74 75 76 87
b 106 104 115 116 117 128
b 107 117 128 129 130
b 108 91 102 103 104 115
b 109 78 89 90 91 102
b 110 65 76 77 78 89
b 111 52 63 64 65 76
b 112 39 50 51 52 63
b 113 15 26 27 28 39
b 114 28 39 40 41 52
b 115 41 52 53 54 65
b 116 54 65 66 67 78
b 117 67 78 79 80 91
b 118 80 91 92 93 104
b 119 93 104 105 106 117
b 120 97 109 110 122
b 121 108 119 120 131
1 5
2 6
3 120
4 121
5 69
6 34
7 8
7 61
8 9
8 60
9 10
9 59
10 11
10 58
11 12
11 57
12 13
12 56
13 14
13 55
14 15
14 54
15 16
15 50
16 17
16 18
18 19
18 49
19 20
19 48
20 21
20 47
21 22
21 46
22 23
22 45
23 24
23 41
24 25
24 40
25 26
25 39
26 27
26 38
27 28
27 29
27 37
29 30
29 36
30 31
30 32
32 33
32 34
32 35
41 42
41 43
41 44
50 51
50 52
50 53
53 121
61 62
61 119
62 63
62 118
63 64
63 117
64 65
64 116
65 66
65 115
66 67
66 114
67 68
67 113
68 69
68 70
70 71
70 72
72 73
72 74
74 75
74 112
75 76
75 111
76 77
76 110
77 78
77 109
78 79
78 108
79 80
79 106
79 107
80 81
80 82
82 83
82 84
84 85
84 105
85 86
85 104
86 87
86 103
87 88
87 101
87 102
88 89
88 100
89 90
89 99
90 91
90 98
91 92
91 95
92 93
93 94
95 96
95 97
96 120
